COMUNI = {
	todi,
	narni,
	castiglione_del_lago,
	terni,
	corciano,
	gubbio,
	umbertide,
	assisi,
};

NUMERO_COMUNI = 8;

ABITANTI_PER_COMUNE = [15, 17, 15, 106, 21, 30, 16, 27];

STRADE_TRA_COMUNI = [|
	false, false, false, false, false, false, false, false |
	false, false, false, true, false, false, false, false |
	false, false, false, false, false, false, false, false |
	false, true, false, false, false, false, false, false |
	false, false, false, false, false, false, false, false |
	false, false, false, false, false, false, true, false |
	false, false, false, false, false, true, false, false |
	false, false, false, false, false, false, false, false |
|];

RICHIESTE = [|
	5, 36, 11, 6, 3 |
	27, 0, 73, 23, 0 |
	67, 79, 15, 4, 1 |
	14, 11, 12, 7, 16 |
	6, 8, 6, 18, 50 |
	28, 11, 74, 1, 15 |
	5, 6, 27, 16, 84 |
	106, 17, 6, 70, 17 |
|];
